column=6;
row=6;
max=4;
left=[0, 3, 0, 4, 3, 1];
right=[3, 1, 0, 3, 4, 2];
top=[2, 4, 0, 0, 0, 1];
bottom=[1, 0, 3, 0, 0, 2];
Board=[|0,4,0,3,0,0|3,0,0,4,0,1|0,0,4,0,0,3|4,1,0,2,3,0|0,0,3,1,2,0|0,0,0,0,4,2|]